c Mesh Graph
c 25 Rows, 25 columns, capacities in range [0, 100]
p max 627 1850
n 1 s
n 627 t
a 1 26 300
a 1 25 300
a 1 24 300
a 1 23 300
a 1 22 300
a 1 21 300
a 1 20 300
a 1 19 300
a 1 18 300
a 1 17 300
a 1 16 300
a 1 15 300
a 1 14 300
a 1 13 300
a 1 12 300
a 1 11 300
a 1 10 300
a 1 9 300
a 1 8 300
a 1 7 300
a 1 6 300
a 1 5 300
a 1 4 300
a 1 3 300
a 1 2 300
a 2 28 30
a 2 27 71
a 2 51 8
a 3 29 88
a 3 28 63
a 3 27 44
a 4 30 68
a 4 29 33
a 4 28 31
a 5 31 74
a 5 30 22
a 5 29 79
a 6 32 81
a 6 31 57
a 6 30 34
a 7 33 13
a 7 32 61
a 7 31 48
a 8 34 34
a 8 33 99
a 8 32 81
a 9 35 10
a 9 34 96
a 9 33 60
a 10 36 29
a 10 35 85
a 10 34 6
a 11 37 71
a 11 36 70
a 11 35 72
a 12 38 42
a 12 37 77
a 12 36 13
a 13 39 56
a 13 38 73
a 13 37 94
a 14 40 40
a 14 39 3
a 14 38 33
a 15 41 61
a 15 40 33
a 15 39 52
a 16 42 17
a 16 41 19
a 16 40 26
a 17 43 29
a 17 42 66
a 17 41 58
a 18 44 27
a 18 43 98
a 18 42 71
a 19 45 75
a 19 44 58
a 19 43 56
a 20 46 11
a 20 45 15
a 20 44 65
a 21 47 80
a 21 46 86
a 21 45 46
a 22 48 57
a 22 47 50
a 22 46 16
a 23 49 81
a 23 48 95
a 23 47 9
a 24 50 83
a 24 49 79
a 24 48 65
a 25 51 68
a 25 50 31
a 25 49 56
a 26 27 86
a 26 51 8
a 26 50 17
a 27 53 3
a 27 52 65
a 27 76 85
a 28 54 100
a 28 53 87
a 28 52 14
a 29 55 9
a 29 54 42
a 29 53 92
a 30 56 23
a 30 55 59
a 30 54 66
a 31 57 61
a 31 56 4
a 31 55 76
a 32 58 62
a 32 57 71
a 32 56 8
a 33 59 57
a 33 58 80
a 33 57 16
a 34 60 35
a 34 59 96
a 34 58 96
a 35 61 17
a 35 60 3
a 35 59 30
a 36 62 24
a 36 61 19
a 36 60 49
a 37 63 41
a 37 62 56
a 37 61 34
a 38 64 27
a 38 63 21
a 38 62 88
a 39 65 69
a 39 64 12
a 39 63 40
a 40 66 79
a 40 65 30
a 40 64 48
a 41 67 82
a 41 66 57
a 41 65 23
a 42 68 4
a 42 67 64
a 42 66 35
a 43 69 35
a 43 68 79
a 43 67 96
a 44 70 82
a 44 69 26
a 44 68 4
a 45 71 85
a 45 70 56
a 45 69 91
a 46 72 55
a 46 71 4
a 46 70 59
a 47 73 10
a 47 72 90
a 47 71 83
a 48 74 30
a 48 73 77
a 48 72 23
a 49 75 94
a 49 74 68
a 49 73 49
a 50 76 75
a 50 75 68
a 50 74 69
a 51 52 83
a 51 76 90
a 51 75 47
a 52 78 47
a 52 77 76
a 52 101 80
a 53 79 77
a 53 78 23
a 53 77 36
a 54 80 3
a 54 79 79
a 54 78 70
a 55 81 10
a 55 80 21
a 55 79 4
a 56 82 13
a 56 81 79
a 56 80 88
a 57 83 54
a 57 82 13
a 57 81 42
a 58 84 83
a 58 83 35
a 58 82 4
a 59 85 50
a 59 84 36
a 59 83 85
a 60 86 17
a 60 85 56
a 60 84 78
a 61 87 58
a 61 86 55
a 61 85 4
a 62 88 33
a 62 87 86
a 62 86 87
a 63 89 8
a 63 88 21
a 63 87 85
a 64 90 86
a 64 89 43
a 64 88 61
a 65 91 58
a 65 90 46
a 65 89 15
a 66 92 36
a 66 91 85
a 66 90 24
a 67 93 49
a 67 92 26
a 67 91 89
a 68 94 35
a 68 93 29
a 68 92 42
a 69 95 22
a 69 94 14
a 69 93 24
a 70 96 78
a 70 95 43
a 70 94 74
a 71 97 84
a 71 96 99
a 71 95 42
a 72 98 69
a 72 97 85
a 72 96 100
a 73 99 42
a 73 98 21
a 73 97 84
a 74 100 36
a 74 99 81
a 74 98 91
a 75 101 33
a 75 100 48
a 75 99 28
a 76 77 17
a 76 101 23
a 76 100 85
a 77 103 94
a 77 102 11
a 77 126 73
a 78 104 75
a 78 103 5
a 78 102 73
a 79 105 40
a 79 104 80
a 79 103 7
a 80 106 82
a 80 105 5
a 80 104 81
a 81 107 32
a 81 106 47
a 81 105 58
a 82 108 68
a 82 107 46
a 82 106 93
a 83 109 88
a 83 108 81
a 83 107 61
a 84 110 21
a 84 109 72
a 84 108 54
a 85 111 68
a 85 110 51
a 85 109 41
a 86 112 90
a 86 111 88
a 86 110 73
a 87 113 53
a 87 112 60
a 87 111 41
a 88 114 57
a 88 113 32
a 88 112 35
a 89 115 88
a 89 114 90
a 89 113 9
a 90 116 93
a 90 115 22
a 90 114 48
a 91 117 39
a 91 116 31
a 91 115 81
a 92 118 36
a 92 117 23
a 92 116 13
a 93 119 16
a 93 118 36
a 93 117 80
a 94 120 87
a 94 119 89
a 94 118 68
a 95 121 90
a 95 120 82
a 95 119 88
a 96 122 77
a 96 121 54
a 96 120 7
a 97 123 36
a 97 122 95
a 97 121 48
a 98 124 19
a 98 123 81
a 98 122 100
a 99 125 60
a 99 124 89
a 99 123 8
a 100 126 82
a 100 125 88
a 100 124 96
a 101 102 12
a 101 126 68
a 101 125 88
a 102 128 87
a 102 127 32
a 102 151 78
a 103 129 22
a 103 128 12
a 103 127 13
a 104 130 62
a 104 129 31
a 104 128 28
a 105 131 43
a 105 130 70
a 105 129 67
a 106 132 49
a 106 131 76
a 106 130 56
a 107 133 43
a 107 132 75
a 107 131 32
a 108 134 23
a 108 133 75
a 108 132 19
a 109 135 63
a 109 134 34
a 109 133 89
a 110 136 50
a 110 135 81
a 110 134 48
a 111 137 69
a 111 136 68
a 111 135 81
a 112 138 1
a 112 137 45
a 112 136 45
a 113 139 64
a 113 138 9
a 113 137 31
a 114 140 94
a 114 139 37
a 114 138 52
a 115 141 15
a 115 140 3
a 115 139 65
a 116 142 42
a 116 141 10
a 116 140 8
a 117 143 16
a 117 142 93
a 117 141 56
a 118 144 90
a 118 143 11
a 118 142 50
a 119 145 76
a 119 144 51
a 119 143 24
a 120 146 56
a 120 145 98
a 120 144 86
a 121 147 76
a 121 146 31
a 121 145 35
a 122 148 20
a 122 147 75
a 122 146 3
a 123 149 81
a 123 148 57
a 123 147 55
a 124 150 17
a 124 149 60
a 124 148 18
a 125 151 71
a 125 150 24
a 125 149 63
a 126 127 32
a 126 151 83
a 126 150 77
a 127 153 24
a 127 152 38
a 127 176 18
a 128 154 34
a 128 153 39
a 128 152 34
a 129 155 36
a 129 154 62
a 129 153 75
a 130 156 33
a 130 155 99
a 130 154 50
a 131 157 15
a 131 156 85
a 131 155 6
a 132 158 41
a 132 157 40
a 132 156 81
a 133 159 97
a 133 158 94
a 133 157 52
a 134 160 56
a 134 159 12
a 134 158 32
a 135 161 80
a 135 160 74
a 135 159 100
a 136 162 62
a 136 161 51
a 136 160 70
a 137 163 52
a 137 162 20
a 137 161 1
a 138 164 42
a 138 163 53
a 138 162 76
a 139 165 4
a 139 164 28
a 139 163 61
a 140 166 54
a 140 165 77
a 140 164 96
a 141 167 39
a 141 166 34
a 141 165 29
a 142 168 78
a 142 167 14
a 142 166 95
a 143 169 71
a 143 168 18
a 143 167 36
a 144 170 34
a 144 169 49
a 144 168 84
a 145 171 8
a 145 170 1
a 145 169 40
a 146 172 10
a 146 171 22
a 146 170 71
a 147 173 29
a 147 172 23
a 147 171 84
a 148 174 82
a 148 173 98
a 148 172 87
a 149 175 61
a 149 174 59
a 149 173 29
a 150 176 89
a 150 175 54
a 150 174 84
a 151 152 23
a 151 176 34
a 151 175 37
a 152 178 88
a 152 177 81
a 152 201 75
a 153 179 5
a 153 178 68
a 153 177 52
a 154 180 6
a 154 179 51
a 154 178 75
a 155 181 58
a 155 180 42
a 155 179 8
a 156 182 79
a 156 181 12
a 156 180 15
a 157 183 1
a 157 182 48
a 157 181 76
a 158 184 51
a 158 183 34
a 158 182 5
a 159 185 61
a 159 184 14
a 159 183 38
a 160 186 66
a 160 185 97
a 160 184 50
a 161 187 52
a 161 186 86
a 161 185 38
a 162 188 32
a 162 187 60
a 162 186 12
a 163 189 51
a 163 188 64
a 163 187 100
a 164 190 1
a 164 189 38
a 164 188 56
a 165 191 43
a 165 190 45
a 165 189 13
a 166 192 6
a 166 191 60
a 166 190 70
a 167 193 5
a 167 192 35
a 167 191 49
a 168 194 39
a 168 193 91
a 168 192 1
a 169 195 4
a 169 194 80
a 169 193 3
a 170 196 1
a 170 195 29
a 170 194 15
a 171 197 86
a 171 196 67
a 171 195 33
a 172 198 97
a 172 197 30
a 172 196 84
a 173 199 60
a 173 198 81
a 173 197 67
a 174 200 97
a 174 199 37
a 174 198 17
a 175 201 42
a 175 200 1
a 175 199 69
a 176 177 53
a 176 201 23
a 176 200 11
a 177 203 39
a 177 202 23
a 177 226 69
a 178 204 30
a 178 203 75
a 178 202 73
a 179 205 9
a 179 204 78
a 179 203 63
a 180 206 90
a 180 205 44
a 180 204 67
a 181 207 8
a 181 206 76
a 181 205 19
a 182 208 37
a 182 207 59
a 182 206 56
a 183 209 18
a 183 208 77
a 183 207 52
a 184 210 6
a 184 209 45
a 184 208 64
a 185 211 58
a 185 210 14
a 185 209 60
a 186 212 80
a 186 211 76
a 186 210 1
a 187 213 2
a 187 212 44
a 187 211 5
a 188 214 77
a 188 213 69
a 188 212 44
a 189 215 6
a 189 214 31
a 189 213 73
a 190 216 49
a 190 215 49
a 190 214 33
a 191 217 25
a 191 216 19
a 191 215 74
a 192 218 35
a 192 217 74
a 192 216 81
a 193 219 12
a 193 218 78
a 193 217 70
a 194 220 56
a 194 219 41
a 194 218 87
a 195 221 21
a 195 220 100
a 195 219 92
a 196 222 97
a 196 221 53
a 196 220 49
a 197 223 92
a 197 222 9
a 197 221 81
a 198 224 60
a 198 223 52
a 198 222 82
a 199 225 43
a 199 224 76
a 199 223 10
a 200 226 43
a 200 225 61
a 200 224 15
a 201 202 62
a 201 226 34
a 201 225 16
a 202 228 35
a 202 227 67
a 202 251 40
a 203 229 64
a 203 228 36
a 203 227 74
a 204 230 4
a 204 229 22
a 204 228 37
a 205 231 56
a 205 230 65
a 205 229 45
a 206 232 60
a 206 231 65
a 206 230 65
a 207 233 68
a 207 232 45
a 207 231 61
a 208 234 72
a 208 233 79
a 208 232 5
a 209 235 47
a 209 234 40
a 209 233 64
a 210 236 7
a 210 235 7
a 210 234 58
a 211 237 93
a 211 236 22
a 211 235 1
a 212 238 59
a 212 237 61
a 212 236 62
a 213 239 94
a 213 238 86
a 213 237 48
a 214 240 67
a 214 239 75
a 214 238 12
a 215 241 31
a 215 240 19
a 215 239 67
a 216 242 47
a 216 241 83
a 216 240 74
a 217 243 44
a 217 242 96
a 217 241 33
a 218 244 74
a 218 243 52
a 218 242 53
a 219 245 13
a 219 244 15
a 219 243 24
a 220 246 19
a 220 245 25
a 220 244 22
a 221 247 92
a 221 246 25
a 221 245 29
a 222 248 4
a 222 247 38
a 222 246 73
a 223 249 90
a 223 248 37
a 223 247 31
a 224 250 64
a 224 249 100
a 224 248 76
a 225 251 34
a 225 250 67
a 225 249 42
a 226 227 68
a 226 251 40
a 226 250 24
a 227 253 63
a 227 252 25
a 227 276 70
a 228 254 66
a 228 253 29
a 228 252 13
a 229 255 81
a 229 254 52
a 229 253 86
a 230 256 57
a 230 255 73
a 230 254 51
a 231 257 81
a 231 256 53
a 231 255 21
a 232 258 70
a 232 257 77
a 232 256 13
a 233 259 6
a 233 258 7
a 233 257 16
a 234 260 6
a 234 259 34
a 234 258 57
a 235 261 72
a 235 260 75
a 235 259 72
a 236 262 63
a 236 261 50
a 236 260 5
a 237 263 39
a 237 262 20
a 237 261 73
a 238 264 67
a 238 263 84
a 238 262 87
a 239 265 70
a 239 264 22
a 239 263 53
a 240 266 43
a 240 265 24
a 240 264 85
a 241 267 47
a 241 266 44
a 241 265 41
a 242 268 24
a 242 267 56
a 242 266 73
a 243 269 82
a 243 268 24
a 243 267 42
a 244 270 16
a 244 269 32
a 244 268 47
a 245 271 42
a 245 270 4
a 245 269 52
a 246 272 92
a 246 271 8
a 246 270 75
a 247 273 11
a 247 272 32
a 247 271 90
a 248 274 46
a 248 273 19
a 248 272 28
a 249 275 67
a 249 274 23
a 249 273 47
a 250 276 90
a 250 275 7
a 250 274 16
a 251 252 86
a 251 276 99
a 251 275 10
a 252 278 93
a 252 277 71
a 252 301 57
a 253 279 16
a 253 278 12
a 253 277 80
a 254 280 48
a 254 279 10
a 254 278 13
a 255 281 3
a 255 280 14
a 255 279 28
a 256 282 10
a 256 281 40
a 256 280 70
a 257 283 42
a 257 282 29
a 257 281 61
a 258 284 12
a 258 283 9
a 258 282 23
a 259 285 34
a 259 284 55
a 259 283 68
a 260 286 92
a 260 285 22
a 260 284 87
a 261 287 90
a 261 286 32
a 261 285 28
a 262 288 12
a 262 287 88
a 262 286 13
a 263 289 75
a 263 288 19
a 263 287 6
a 264 290 84
a 264 289 31
a 264 288 73
a 265 291 97
a 265 290 59
a 265 289 72
a 266 292 37
a 266 291 80
a 266 290 74
a 267 293 17
a 267 292 92
a 267 291 84
a 268 294 25
a 268 293 14
a 268 292 77
a 269 295 31
a 269 294 33
a 269 293 40
a 270 296 53
a 270 295 71
a 270 294 25
a 271 297 84
a 271 296 99
a 271 295 68
a 272 298 23
a 272 297 11
a 272 296 57
a 273 299 41
a 273 298 68
a 273 297 20
a 274 300 71
a 274 299 41
a 274 298 94
a 275 301 81
a 275 300 12
a 275 299 77
a 276 277 60
a 276 301 86
a 276 300 26
a 277 303 51
a 277 302 21
a 277 326 14
a 278 304 16
a 278 303 49
a 278 302 30
a 279 305 49
a 279 304 40
a 279 303 7
a 280 306 71
a 280 305 64
a 280 304 89
a 281 307 69
a 281 306 31
a 281 305 41
a 282 308 32
a 282 307 39
a 282 306 76
a 283 309 99
a 283 308 58
a 283 307 98
a 284 310 91
a 284 309 51
a 284 308 38
a 285 311 55
a 285 310 79
a 285 309 61
a 286 312 92
a 286 311 4
a 286 310 41
a 287 313 64
a 287 312 17
a 287 311 1
a 288 314 12
a 288 313 99
a 288 312 3
a 289 315 51
a 289 314 57
a 289 313 19
a 290 316 66
a 290 315 45
a 290 314 19
a 291 317 96
a 291 316 38
a 291 315 89
a 292 318 86
a 292 317 13
a 292 316 10
a 293 319 43
a 293 318 63
a 293 317 41
a 294 320 45
a 294 319 52
a 294 318 91
a 295 321 75
a 295 320 12
a 295 319 82
a 296 322 79
a 296 321 5
a 296 320 88
a 297 323 47
a 297 322 57
a 297 321 79
a 298 324 97
a 298 323 59
a 298 322 42
a 299 325 53
a 299 324 29
a 299 323 5
a 300 326 98
a 300 325 99
a 300 324 55
a 301 302 35
a 301 326 88
a 301 325 72
a 302 328 99
a 302 327 49
a 302 351 19
a 303 329 61
a 303 328 89
a 303 327 4
a 304 330 13
a 304 329 79
a 304 328 98
a 305 331 76
a 305 330 12
a 305 329 94
a 306 332 80
a 306 331 99
a 306 330 68
a 307 333 36
a 307 332 77
a 307 331 98
a 308 334 47
a 308 333 70
a 308 332 45
a 309 335 75
a 309 334 74
a 309 333 41
a 310 336 26
a 310 335 80
a 310 334 94
a 311 337 13
a 311 336 51
a 311 335 43
a 312 338 13
a 312 337 69
a 312 336 77
a 313 339 1
a 313 338 24
a 313 337 27
a 314 340 31
a 314 339 21
a 314 338 88
a 315 341 95
a 315 340 14
a 315 339 52
a 316 342 93
a 316 341 34
a 316 340 27
a 317 343 22
a 317 342 31
a 317 341 7
a 318 344 43
a 318 343 75
a 318 342 94
a 319 345 17
a 319 344 68
a 319 343 40
a 320 346 96
a 320 345 13
a 320 344 67
a 321 347 99
a 321 346 7
a 321 345 92
a 322 348 19
a 322 347 83
a 322 346 56
a 323 349 43
a 323 348 9
a 323 347 68
a 324 350 63
a 324 349 48
a 324 348 20
a 325 351 29
a 325 350 99
a 325 349 50
a 326 327 62
a 326 351 26
a 326 350 96
a 327 353 92
a 327 352 84
a 327 376 41
a 328 354 19
a 328 353 77
a 328 352 14
a 329 355 86
a 329 354 69
a 329 353 56
a 330 356 50
a 330 355 35
a 330 354 24
a 331 357 56
a 331 356 26
a 331 355 72
a 332 358 90
a 332 357 33
a 332 356 70
a 333 359 50
a 333 358 100
a 333 357 88
a 334 360 98
a 334 359 19
a 334 358 30
a 335 361 48
a 335 360 20
a 335 359 45
a 336 362 73
a 336 361 16
a 336 360 73
a 337 363 8
a 337 362 8
a 337 361 34
a 338 364 37
a 338 363 21
a 338 362 77
a 339 365 5
a 339 364 76
a 339 363 95
a 340 366 91
a 340 365 100
a 340 364 32
a 341 367 16
a 341 366 71
a 341 365 81
a 342 368 100
a 342 367 92
a 342 366 88
a 343 369 99
a 343 368 79
a 343 367 77
a 344 370 69
a 344 369 61
a 344 368 27
a 345 371 88
a 345 370 5
a 345 369 76
a 346 372 55
a 346 371 29
a 346 370 23
a 347 373 14
a 347 372 62
a 347 371 48
a 348 374 34
a 348 373 38
a 348 372 55
a 349 375 62
a 349 374 33
a 349 373 91
a 350 376 13
a 350 375 16
a 350 374 47
a 351 352 35
a 351 376 97
a 351 375 37
a 352 378 26
a 352 377 84
a 352 401 4
a 353 379 56
a 353 378 13
a 353 377 3
a 354 380 68
a 354 379 39
a 354 378 53
a 355 381 72
a 355 380 66
a 355 379 21
a 356 382 100
a 356 381 88
a 356 380 61
a 357 383 13
a 357 382 87
a 357 381 67
a 358 384 3
a 358 383 42
a 358 382 81
a 359 385 87
a 359 384 84
a 359 383 66
a 360 386 2
a 360 385 83
a 360 384 27
a 361 387 98
a 361 386 71
a 361 385 39
a 362 388 34
a 362 387 75
a 362 386 25
a 363 389 46
a 363 388 29
a 363 387 50
a 364 390 36
a 364 389 82
a 364 388 58
a 365 391 1
a 365 390 54
a 365 389 25
a 366 392 40
a 366 391 14
a 366 390 97
a 367 393 27
a 367 392 33
a 367 391 48
a 368 394 20
a 368 393 13
a 368 392 13
a 369 395 55
a 369 394 78
a 369 393 15
a 370 396 37
a 370 395 57
a 370 394 1
a 371 397 8
a 371 396 47
a 371 395 2
a 372 398 34
a 372 397 72
a 372 396 52
a 373 399 62
a 373 398 21
a 373 397 37
a 374 400 95
a 374 399 30
a 374 398 82
a 375 401 49
a 375 400 55
a 375 399 69
a 376 377 14
a 376 401 3
a 376 400 21
a 377 403 46
a 377 402 50
a 377 426 60
a 378 404 10
a 378 403 62
a 378 402 38
a 379 405 88
a 379 404 28
a 379 403 9
a 380 406 44
a 380 405 28
a 380 404 64
a 381 407 90
a 381 406 82
a 381 405 52
a 382 408 61
a 382 407 85
a 382 406 59
a 383 409 34
a 383 408 21
a 383 407 44
a 384 410 63
a 384 409 54
a 384 408 6
a 385 411 69
a 385 410 22
a 385 409 52
a 386 412 71
a 386 411 42
a 386 410 52
a 387 413 73
a 387 412 53
a 387 411 66
a 388 414 86
a 388 413 43
a 388 412 11
a 389 415 14
a 389 414 51
a 389 413 73
a 390 416 93
a 390 415 14
a 390 414 60
a 391 417 26
a 391 416 66
a 391 415 55
a 392 418 10
a 392 417 76
a 392 416 96
a 393 419 30
a 393 418 20
a 393 417 9
a 394 420 83
a 394 419 77
a 394 418 94
a 395 421 56
a 395 420 28
a 395 419 8
a 396 422 97
a 396 421 80
a 396 420 77
a 397 423 2
a 397 422 97
a 397 421 99
a 398 424 44
a 398 423 59
a 398 422 71
a 399 425 94
a 399 424 31
a 399 423 57
a 400 426 60
a 400 425 42
a 400 424 22
a 401 402 77
a 401 426 96
a 401 425 66
a 402 428 52
a 402 427 44
a 402 451 92
a 403 429 23
a 403 428 4
a 403 427 1
a 404 430 99
a 404 429 97
a 404 428 83
a 405 431 79
a 405 430 4
a 405 429 17
a 406 432 10
a 406 431 32
a 406 430 25
a 407 433 58
a 407 432 31
a 407 431 21
a 408 434 16
a 408 433 1
a 408 432 74
a 409 435 47
a 409 434 9
a 409 433 17
a 410 436 40
a 410 435 82
a 410 434 63
a 411 437 88
a 411 436 48
a 411 435 22
a 412 438 31
a 412 437 39
a 412 436 98
a 413 439 34
a 413 438 91
a 413 437 1
a 414 440 82
a 414 439 25
a 414 438 24
a 415 441 37
a 415 440 94
a 415 439 74
a 416 442 69
a 416 441 18
a 416 440 4
a 417 443 51
a 417 442 38
a 417 441 13
a 418 444 3
a 418 443 64
a 418 442 70
a 419 445 64
a 419 444 80
a 419 443 38
a 420 446 45
a 420 445 94
a 420 444 36
a 421 447 92
a 421 446 15
a 421 445 75
a 422 448 82
a 422 447 64
a 422 446 62
a 423 449 73
a 423 448 65
a 423 447 44
a 424 450 49
a 424 449 88
a 424 448 29
a 425 451 42
a 425 450 61
a 425 449 62
a 426 427 59
a 426 451 65
a 426 450 99
a 427 453 49
a 427 452 29
a 427 476 19
a 428 454 12
a 428 453 51
a 428 452 21
a 429 455 43
a 429 454 88
a 429 453 23
a 430 456 37
a 430 455 75
a 430 454 86
a 431 457 51
a 431 456 49
a 431 455 31
a 432 458 15
a 432 457 63
a 432 456 74
a 433 459 79
a 433 458 58
a 433 457 56
a 434 460 18
a 434 459 39
a 434 458 80
a 435 461 30
a 435 460 100
a 435 459 28
a 436 462 46
a 436 461 50
a 436 460 70
a 437 463 75
a 437 462 68
a 437 461 28
a 438 464 25
a 438 463 40
a 438 462 76
a 439 465 64
a 439 464 63
a 439 463 39
a 440 466 38
a 440 465 48
a 440 464 82
a 441 467 38
a 441 466 30
a 441 465 18
a 442 468 52
a 442 467 56
a 442 466 20
a 443 469 10
a 443 468 11
a 443 467 86
a 444 470 100
a 444 469 90
a 444 468 16
a 445 471 99
a 445 470 69
a 445 469 33
a 446 472 49
a 446 471 90
a 446 470 15
a 447 473 68
a 447 472 18
a 447 471 60
a 448 474 8
a 448 473 45
a 448 472 34
a 449 475 22
a 449 474 36
a 449 473 10
a 450 476 21
a 450 475 17
a 450 474 25
a 451 452 3
a 451 476 86
a 451 475 14
a 452 478 58
a 452 477 5
a 452 501 52
a 453 479 68
a 453 478 43
a 453 477 55
a 454 480 9
a 454 479 58
a 454 478 64
a 455 481 29
a 455 480 43
a 455 479 63
a 456 482 19
a 456 481 57
a 456 480 14
a 457 483 88
a 457 482 16
a 457 481 14
a 458 484 32
a 458 483 2
a 458 482 33
a 459 485 67
a 459 484 63
a 459 483 40
a 460 486 35
a 460 485 88
a 460 484 13
a 461 487 20
a 461 486 1
a 461 485 34
a 462 488 77
a 462 487 4
a 462 486 36
a 463 489 19
a 463 488 59
a 463 487 93
a 464 490 28
a 464 489 74
a 464 488 12
a 465 491 22
a 465 490 89
a 465 489 72
a 466 492 78
a 466 491 2
a 466 490 100
a 467 493 46
a 467 492 15
a 467 491 18
a 468 494 99
a 468 493 47
a 468 492 5
a 469 495 61
a 469 494 39
a 469 493 89
a 470 496 48
a 470 495 3
a 470 494 7
a 471 497 49
a 471 496 36
a 471 495 94
a 472 498 4
a 472 497 23
a 472 496 13
a 473 499 62
a 473 498 67
a 473 497 41
a 474 500 36
a 474 499 30
a 474 498 11
a 475 501 24
a 475 500 1
a 475 499 39
a 476 477 77
a 476 501 1
a 476 500 60
a 477 503 43
a 477 502 70
a 477 526 90
a 478 504 89
a 478 503 27
a 478 502 87
a 479 505 79
a 479 504 67
a 479 503 85
a 480 506 82
a 480 505 73
a 480 504 45
a 481 507 69
a 481 506 18
a 481 505 93
a 482 508 44
a 482 507 31
a 482 506 93
a 483 509 10
a 483 508 23
a 483 507 48
a 484 510 92
a 484 509 34
a 484 508 10
a 485 511 92
a 485 510 72
a 485 509 97
a 486 512 44
a 486 511 83
a 486 510 72
a 487 513 66
a 487 512 72
a 487 511 48
a 488 514 92
a 488 513 10
a 488 512 90
a 489 515 10
a 489 514 94
a 489 513 30
a 490 516 34
a 490 515 39
a 490 514 9
a 491 517 52
a 491 516 83
a 491 515 42
a 492 518 82
a 492 517 27
a 492 516 62
a 493 519 4
a 493 518 74
a 493 517 5
a 494 520 37
a 494 519 83
a 494 518 67
a 495 521 60
a 495 520 31
a 495 519 58
a 496 522 95
a 496 521 2
a 496 520 1
a 497 523 18
a 497 522 49
a 497 521 97
a 498 524 28
a 498 523 38
a 498 522 62
a 499 525 21
a 499 524 20
a 499 523 5
a 500 526 11
a 500 525 80
a 500 524 14
a 501 502 93
a 501 526 21
a 501 525 47
a 502 528 71
a 502 527 34
a 502 551 98
a 503 529 45
a 503 528 39
a 503 527 31
a 504 530 79
a 504 529 57
a 504 528 87
a 505 531 10
a 505 530 66
a 505 529 75
a 506 532 11
a 506 531 18
a 506 530 87
a 507 533 12
a 507 532 14
a 507 531 81
a 508 534 1
a 508 533 27
a 508 532 98
a 509 535 20
a 509 534 31
a 509 533 25
a 510 536 99
a 510 535 96
a 510 534 98
a 511 537 71
a 511 536 95
a 511 535 8
a 512 538 5
a 512 537 92
a 512 536 53
a 513 539 95
a 513 538 75
a 513 537 23
a 514 540 3
a 514 539 61
a 514 538 67
a 515 541 68
a 515 540 35
a 515 539 98
a 516 542 37
a 516 541 21
a 516 540 7
a 517 543 51
a 517 542 53
a 517 541 69
a 518 544 77
a 518 543 51
a 518 542 80
a 519 545 60
a 519 544 27
a 519 543 33
a 520 546 7
a 520 545 24
a 520 544 52
a 521 547 1
a 521 546 84
a 521 545 3
a 522 548 93
a 522 547 36
a 522 546 73
a 523 549 67
a 523 548 58
a 523 547 29
a 524 550 79
a 524 549 77
a 524 548 23
a 525 551 65
a 525 550 74
a 525 549 25
a 526 527 38
a 526 551 32
a 526 550 44
a 527 553 90
a 527 552 52
a 527 576 81
a 528 554 92
a 528 553 84
a 528 552 83
a 529 555 19
a 529 554 16
a 529 553 11
a 530 556 94
a 530 555 67
a 530 554 70
a 531 557 77
a 531 556 21
a 531 555 77
a 532 558 12
a 532 557 94
a 532 556 77
a 533 559 22
a 533 558 22
a 533 557 21
a 534 560 50
a 534 559 97
a 534 558 39
a 535 561 75
a 535 560 73
a 535 559 69
a 536 562 6
a 536 561 17
a 536 560 34
a 537 563 57
a 537 562 49
a 537 561 23
a 538 564 92
a 538 563 31
a 538 562 12
a 539 565 7
a 539 564 41
a 539 563 4
a 540 566 26
a 540 565 63
a 540 564 74
a 541 567 46
a 541 566 91
a 541 565 67
a 542 568 91
a 542 567 19
a 542 566 44
a 543 569 13
a 543 568 92
a 543 567 7
a 544 570 61
a 544 569 30
a 544 568 28
a 545 571 33
a 545 570 51
a 545 569 29
a 546 572 1
a 546 571 36
a 546 570 3
a 547 573 49
a 547 572 58
a 547 571 8
a 548 574 31
a 548 573 69
a 548 572 17
a 549 575 72
a 549 574 24
a 549 573 8
a 550 576 86
a 550 575 49
a 550 574 67
a 551 552 76
a 551 576 16
a 551 575 92
a 552 578 46
a 552 577 11
a 552 601 37
a 553 579 37
a 553 578 69
a 553 577 80
a 554 580 19
a 554 579 49
a 554 578 92
a 555 581 69
a 555 580 77
a 555 579 4
a 556 582 4
a 556 581 80
a 556 580 36
a 557 583 61
a 557 582 39
a 557 581 37
a 558 584 81
a 558 583 7
a 558 582 37
a 559 585 57
a 559 584 15
a 559 583 68
a 560 586 57
a 560 585 81
a 560 584 91
a 561 587 24
a 561 586 24
a 561 585 76
a 562 588 34
a 562 587 12
a 562 586 3
a 563 589 55
a 563 588 91
a 563 587 48
a 564 590 3
a 564 589 34
a 564 588 37
a 565 591 79
a 565 590 37
a 565 589 55
a 566 592 10
a 566 591 25
a 566 590 75
a 567 593 49
a 567 592 13
a 567 591 30
a 568 594 7
a 568 593 49
a 568 592 42
a 569 595 21
a 569 594 16
a 569 593 22
a 570 596 53
a 570 595 58
a 570 594 30
a 571 597 28
a 571 596 33
a 571 595 87
a 572 598 40
a 572 597 87
a 572 596 10
a 573 599 30
a 573 598 87
a 573 597 96
a 574 600 64
a 574 599 23
a 574 598 50
a 575 601 100
a 575 600 77
a 575 599 4
a 576 577 24
a 576 601 3
a 576 600 34
a 577 603 36
a 577 602 32
a 577 626 44
a 578 604 37
a 578 603 73
a 578 602 44
a 579 605 4
a 579 604 46
a 579 603 50
a 580 606 62
a 580 605 28
a 580 604 23
a 581 607 46
a 581 606 14
a 581 605 27
a 582 608 33
a 582 607 75
a 582 606 55
a 583 609 19
a 583 608 70
a 583 607 94
a 584 610 93
a 584 609 71
a 584 608 75
a 585 611 21
a 585 610 74
a 585 609 38
a 586 612 23
a 586 611 8
a 586 610 90
a 587 613 6
a 587 612 51
a 587 611 65
a 588 614 78
a 588 613 46
a 588 612 53
a 589 615 75
a 589 614 47
a 589 613 89
a 590 616 2
a 590 615 69
a 590 614 92
a 591 617 15
a 591 616 48
a 591 615 5
a 592 618 90
a 592 617 2
a 592 616 51
a 593 619 11
a 593 618 47
a 593 617 35
a 594 620 82
a 594 619 21
a 594 618 53
a 595 621 55
a 595 620 11
a 595 619 97
a 596 622 14
a 596 621 100
a 596 620 17
a 597 623 64
a 597 622 64
a 597 621 39
a 598 624 61
a 598 623 16
a 598 622 44
a 599 625 8
a 599 624 56
a 599 623 73
a 600 626 28
a 600 625 100
a 600 624 47
a 601 602 75
a 601 626 4
a 601 625 49
a 602 627 300
a 603 627 300
a 604 627 300
a 605 627 300
a 606 627 300
a 607 627 300
a 608 627 300
a 609 627 300
a 610 627 300
a 611 627 300
a 612 627 300
a 613 627 300
a 614 627 300
a 615 627 300
a 616 627 300
a 617 627 300
a 618 627 300
a 619 627 300
a 620 627 300
a 621 627 300
a 622 627 300
a 623 627 300
a 624 627 300
a 625 627 300
a 626 627 300
